# Solution for model Objective
# Objective value = 3
M 2
W1 0
W9 0
W10 0
W14 1
W15 0
W16 0
W17 0
W0 2
W2 1
W3 0
W4 2
W5 2
W6 2
W7 2
W8 2
W11 2
W12 2
W13 1
d0_1 0
d0_2 1
d0_3 0
d0_4 0
d0_5 0
d0_6 0
d0_7 0
d0_8 0
d0_9 0
d0_0 0
d1_1 0
d1_2 0
d1_3 1
d1_4 0
d1_5 0
d1_6 0
d1_7 0
d1_8 0
d1_9 0
d1_0 0
d2_1 0
d2_2 0
d2_3 0
d2_4 0
d2_5 0
d2_6 0
d2_7 0
d2_8 0
d2_9 0
d2_0 1
d3_1 1
d3_2 0
d3_3 0
d3_4 0
d3_5 0
d3_6 0
d3_7 0
d3_8 0
d3_9 0
d3_0 0
